8054
9059
5114
8609
1488
3870
3578
746
7968
9723
7227
578
9275
3771
8681
4513
6641
6738
7554
6777
5368
7109
4750
961
1435
9797
913
1743
4673
6262
6608
9947
7467
8673
8582
8963
5106
911
8388
9731
3949
7526
5490
9529
5979
4093
4836
1206
10101
2995
2607
